problems/csplib-prob056/sonet-models/noch/O2/lingeling/model_3_1-s3ring10-solution000001.eprime-solution
language ESSENCE' 1.0

letting network_ExplicitWithFlagsR5_Flags be [2, 1, 1, 1, 2, 0, 0; int(1..7)]
letting network_ExplicitWithFlagsR5_Values_ExplicitVarSizeWithMarker_Marker be [4, 5, 5, 5, 5, 0, 0; int(1..7)]
letting network_ExplicitWithFlagsR5_Values_ExplicitVarSizeWithMarker_Values be
        [[1, 7, 12, 13, 1; int(1..5)], [1, 2, 6, 8, 9; int(1..5)], [3, 4, 7, 8, 10; int(1..5)],
         [3, 5, 9, 11, 13; int(1..5)], [3, 6, 10, 11, 12; int(1..5)], [1, 1, 1, 1, 1; int(1..5)],
         [1, 1, 1, 1, 1; int(1..5)]; int(1..7)]
