problems/csplib-prob056/sonet-models/noch/O2/lingeling/model_3_1-s3ring10-solution000001.solution
language Essence 1.3

letting network be
        mset({1, 2, 6, 8, 9}, {1, 7, 12, 13}, {1, 7, 12, 13}, {3, 4, 7, 8, 10}, {3, 5, 9, 11, 13}, {3, 6, 10, 11, 12},
             {3, 6, 10, 11, 12})
$ Here is a simple "visualisation" for the value above.
$  1  2  6  8  9
$  1  7 12 13
$  1  7 12 13
$  3  4  7  8 10
$  3  5  9 11 13
$  3  6 10 11 12
$  3  6 10 11 12

